50 355
0 1
0 3
0 5
0 6
0 13
0 16
0 24
0 26
0 28
0 31
0 35
0 40
1 6
1 15
1 20
1 21
1 30
1 35
1 36
1 39
1 40
1 44
1 48
2 3
2 4
2 7
2 10
2 16
2 17
2 20
2 32
2 33
2 35
2 41
2 43
2 46
2 49
3 10
3 14
3 15
3 23
3 24
3 29
3 32
3 34
3 35
3 36
3 38
3 40
3 43
3 45
3 46
3 47
4 8
4 9
4 11
4 14
4 20
4 21
4 25
4 26
4 28
4 31
4 40
5 11
5 14
5 17
5 18
5 21
5 22
5 31
5 35
5 37
5 41
5 44
5 46
6 8
6 11
6 12
6 13
6 18
6 23
6 31
6 33
6 34
6 36
6 38
6 39
6 48
7 13
7 15
7 17
7 22
7 31
7 33
7 35
7 37
7 39
7 43
7 45
7 48
8 10
8 14
8 15
8 21
8 23
8 24
8 29
8 30
8 34
8 36
8 38
8 40
8 41
8 44
9 12
9 18
9 19
9 23
9 24
9 26
9 27
9 29
9 30
9 40
9 42
9 43
9 44
10 11
10 13
10 17
10 18
10 19
10 20
10 30
10 31
10 35
10 36
10 37
10 40
10 48
11 12
11 19
11 21
11 22
11 24
11 30
11 31
11 32
11 33
11 34
11 36
11 38
11 45
12 14
12 21
12 24
12 25
12 27
12 28
12 30
12 33
12 34
12 36
12 37
12 40
12 43
13 17
13 18
13 20
13 22
13 25
13 26
13 30
13 31
13 32
13 34
13 40
13 41
13 42
13 49
14 15
14 16
14 18
14 22
14 24
14 25
14 28
14 29
14 31
14 35
14 36
14 38
14 40
14 41
14 42
14 45
15 21
15 24
15 29
15 31
15 35
15 37
15 38
15 41
15 42
15 44
15 45
16 18
16 21
16 23
16 25
16 30
16 31
16 32
16 36
16 38
16 40
16 43
16 46
17 19
17 20
17 40
17 42
18 19
18 29
18 45
18 49
19 20
19 21
19 22
19 24
19 29
19 32
19 34
19 38
19 39
19 42
19 46
20 23
20 29
20 33
20 34
20 40
20 46
21 26
21 31
21 33
21 34
21 40
21 43
21 47
22 23
22 25
22 26
22 29
22 32
22 33
22 34
22 36
22 37
22 48
23 26
23 27
23 33
23 34
23 38
23 39
23 44
23 45
23 48
23 49
24 29
24 31
24 33
24 43
24 46
25 26
25 29
25 37
25 41
25 45
25 46
25 47
26 31
26 36
26 40
26 43
27 28
27 30
27 31
27 35
27 36
27 43
27 47
27 49
28 30
28 32
28 37
28 43
28 44
28 48
28 49
29 39
30 31
30 32
30 34
30 37
30 42
30 43
30 44
31 33
31 38
31 39
31 40
31 46
31 47
32 38
32 42
32 46
32 47
33 38
33 39
33 45
33 48
33 49
34 41
34 43
34 45
34 46
35 38
35 41
35 44
35 48
36 39
36 40
36 47
36 48
37 40
37 45
37 48
38 46
38 48
39 43
39 45
39 46
40 42
40 49
42 47
42 48
43 44
44 46
45 46
45 48
47 49
